# Molecule 1; Conformer number 13 (B3LYP_def2-TZVP)

!RKS b3lyp def2-TZVP def2/J RIJDX TightSCF defgrid2 NoMOPrint Printbasis
%pal nprocs 4 end
%maxcore 1000
%base "B3LYP_def2-TZVP_1_13"

%geom
TolE=1e-6
TolMaxG=1e-4
TolRMSG=3e-5
TolMaxD=1e-3
TolRMSD=6e-4
end

*xyz 1 1
H         -1.2778601793        0.4559802102       -0.6236093008
N         -0.6863205694        1.2092307006       -0.2461474614
C         -1.3378938095        2.1584157414        0.4451436875
C         -0.6022863997        3.2024035819        0.9807342466
C          0.7716495604        3.2379948517        0.7820219269
C          1.3961797906        2.2328631709        0.0593656982
C          0.6384916007        1.1954786704       -0.4638240110
C          1.2263605309        0.0697970196       -1.2403596896
C          2.5380775807       -0.3797371698       -0.6301977488
C          3.7294529409       -0.2272961105       -1.3198256186
C          4.9320803008       -0.6339227499       -0.7533784779
C          4.9150637004       -1.1847512386        0.5201974927
C          3.7313605902       -1.3429619579        1.2304262325
C          2.5425722304       -0.9335047385        0.6433166418
H          1.6114772402       -1.0539566279        1.1803707916
C          3.7522395498       -1.9487626565        2.5982780532
H          4.4509546896       -1.4150277858        3.2398514428
H          2.7669418197       -1.9249741460        3.0563223829
H          4.0828130398       -2.9849112765        2.5430115743
H          5.8441172503       -1.5023681782        0.9701217833
C          6.2179109110       -0.4990538107       -1.5050703276
H          6.5097318711       -1.4664592112       -1.9132632665
H          7.0163009008       -0.1639852801       -0.8471208677
H          6.1206470112        0.2015860384       -2.3301892384
H          3.7277913712        0.2025087385       -2.3113047991
H          0.5218392609       -0.7653474505       -1.2834783990
H          1.4093481612        0.4046131185       -2.2656824899
H          2.4624151806        2.2365167408       -0.0984760515
H          1.3540576703        4.0478594621        1.1928600363
H         -1.1005548298        3.9751278325        1.5431623556
C         -2.8228371996        2.0357557815        0.5793173572
C         -3.3284873695        0.6594249811        0.2215430684
C         -3.3909964991        0.2698555397       -1.1155988112
C         -3.8199834090       -1.0051522706       -1.4637504400
C         -4.1761279893       -1.8866453896       -0.4503683092
C         -4.1234273197       -1.5192125582        0.8872509905
C         -3.6866012598       -0.2392204078        1.2131706093
H         -3.6419928001        0.0596887432        2.2501934490
C         -4.5524270300       -2.4716175771        1.9560672113
H         -4.3405997699       -3.4988999174        1.6709261425
H         -4.0582915303       -2.2535505861        2.8994560912
H         -5.6277029101       -2.3844264369        2.1122511609
H         -4.5157573293       -2.8774025898       -0.7131313082
C         -3.9120454086       -1.4234033621       -2.8966711396
H         -4.9572570585       -1.5320595024       -3.1827708698
H         -3.4299801686       -2.3873092023       -3.0482279684
H         -3.4538998384       -0.6900223028       -3.5556107802
H         -3.1505691989        0.9807553889       -1.8961763318
H         -3.2824769994        2.7812728908       -0.0788468138
H         -3.1105893699        2.2965971026        1.5996839868
*
