# Molecule 2; Conformer number 4 (B3LYP_def2-TZVP)

!RKS b3lyp def2-TZVP def2/J RIJDX TightSCF defgrid2 NoMOPrint Printbasis
%pal nprocs 4 end
%maxcore 1000
%base "B3LYP_def2-TZVP_2_4"

%geom
TolE=1e-6
TolMaxG=1e-4
TolRMSG=3e-5
TolMaxD=1e-3
TolRMSD=6e-4
end

*xyz 1 1
C          0.8796317504        1.0194961689       -0.8783424703
N          0.1214837801        0.2919767292       -0.0362904103
C         -0.7791798996        0.8049486595        0.8192395798
C         -0.9444056891        2.1821875896        0.8429501999
C         -0.1835386488        2.9774258393        0.0002481799
C          0.7338109609        2.3956798090       -0.8655704202
H          1.3296366611        3.0037844988       -1.5261627102
H         -0.3026482184        4.0496621794        0.0172667899
H         -1.6594017788        2.6217240899        1.5184662799
C         -1.6101983200       -0.1406159302        1.6100085798
C         -2.8051244902       -0.5035496996        0.7381015399
C         -3.9476708398        0.2836560708        0.7616500700
C         -5.0289026500       -0.0349501387       -0.0413157099
C         -4.9707789305       -1.1351038987       -0.8802862400
C         -3.8309408508       -1.9204793892       -0.9097606001
C         -2.7482269106       -1.6024217596       -0.1077821301
H         -1.8707452909       -2.2344126500       -0.1240594202
H         -3.7842888712       -2.7847215192       -1.5539604001
H         -5.8138038506       -1.3834889883       -1.5054060099
H         -5.9176402198        0.5755257716       -0.0083454699
H         -4.0018329594        1.1372664608        1.4206383900
H         -1.9554285297        0.3319173300        2.5283813099
H         -1.0474323803       -1.0404236804        1.8627777098
H          0.2558622597       -0.7184092508       -0.0426997703
C          1.8750286500        0.2824107686       -1.7048724604
C          2.9227449598       -0.2982187919       -0.7693538005
C          3.9375360302        0.5147803177       -0.2829710105
C          4.8834211700        0.0018935473        0.5871329094
C          4.8160005095       -1.3234362427        0.9839780294
C          3.8028528192       -2.1364488323        0.5054879494
C          2.8544126493       -1.6241985419       -0.3642030005
H          2.0823459190       -2.2749235216       -0.7534895405
H          3.7523412488       -3.1724127023        0.8028396694
H          5.5556407094       -1.7236586430        1.6591770893
H          5.6749539403        0.6373723069        0.9521924394
H          3.9953866606        1.5468736277       -0.5957885505
H          2.3421274402        0.9575905784       -2.4205062104
H          1.3870769796       -0.5248712212       -2.2553807104
*
