# Molecule 1; Conformer number 11 (B3LYP_def2-TZVP)

!RKS b3lyp def2-TZVP def2/J RIJDX TightSCF defgrid2 NoMOPrint Printbasis
%pal nprocs 4 end
%maxcore 1000
%base "B3LYP_def2-TZVP_1_11"

%geom
TolE=1e-6
TolMaxG=1e-4
TolRMSG=3e-5
TolMaxD=1e-3
TolRMSD=6e-4
end

*xyz 1 1
H         -0.0261108698        0.3113526501       -0.0131808993
N         -0.0088510900        1.3367491901       -0.0094700794
C          0.7607888399        1.9512506502       -0.9218604894
C          0.7940021196        3.3363748202       -0.9228115194
C          0.0316634194        4.0365870801        0.0020106205
C         -0.7506815606        3.3517354100        0.9216283305
C         -0.7587554402        1.9663286100        0.9088019405
C         -1.5649007801        1.1099116198        1.8246153905
C         -2.3265220198        0.0785678496        1.0155234805
C         -3.5409455499        0.4217765093        0.4429037104
C         -4.2446260796       -0.4952105909       -0.3287475196
C         -3.7020362693       -1.7586871208       -0.5195457295
C         -2.4864349392       -2.1231226205        0.0441574506
C         -1.7946502395       -1.1870833503        0.8041390106
H         -0.8582090395       -1.4685616400        1.2694135907
C         -1.9383619189       -3.4983379904       -0.1729448992
H         -2.7254043888       -4.2408176105       -0.0656395393
H         -1.5381154888       -3.5909946003       -1.1830989292
H         -1.1478545289       -3.7232436901        0.5377107808
H         -4.2446322191       -2.4821025309       -1.1098659795
C         -5.5727069796       -0.1395300712       -0.9152445497
H         -5.7248436094       -0.6418728913       -1.8671161997
H         -5.6644171899        0.9339362487       -1.0598670098
H         -6.3675175396       -0.4573013714       -0.2404202197
H         -3.9532160701        1.4062501192        0.6099005803
H         -0.8940977200        0.6027001100        2.5239325206
H         -2.2512960103        1.7279735597        2.4024468404
H         -1.3453852207        3.8849168899        1.6451027304
H          0.0476132391        5.1155191801        0.0064124404
H          1.4047132795        3.8577059403       -1.6415670094
C          1.5470409302        1.0783698603       -1.8387743993
C          2.3140244203        0.0568212606       -1.0213091391
C          3.5258093202        0.4128137309       -0.4490828291
C          4.2343981604       -0.4938451189        0.3286119510
C          3.7002368606       -1.7607563990        0.5263866311
C          2.4885804408       -2.1372556494       -0.0361529890
C          1.7909554106       -1.2103472096       -0.8028378691
H          0.8564949807       -1.5007918098       -1.2662971292
C          1.9492477411       -3.5148346695        0.1881888110
H          1.5381018610       -3.6007053595        1.1945616810
H          1.1685670312       -3.7529881997       -0.5290089290
H          2.7431923412       -4.2520164893        0.0971384311
H          4.2483763708       -2.4756555189        1.1220069211
C          5.5554100802       -0.1304206586        0.9264340411
H          5.7420021100        0.9374237114        0.8525991211
H          6.3541929104       -0.6543568284        0.4027955012
H          5.5988026402       -0.4263316385        1.9724157511
H          3.9302779800        1.3994133309       -0.6225989691
H          2.2294728101        1.6836539805       -2.4344462592
H          0.8648227203        0.5629828901       -2.5204581593
*
