# Molecule 1; Conformer number 9 (B3LYP_def2-TZVP)

!RKS b3lyp def2-TZVP def2/J RIJDX TightSCF defgrid2 NoMOPrint Printbasis
%pal nprocs 4 end
%maxcore 1000
%base "B3LYP_def2-TZVP_1_9"

%geom
TolE=1e-6
TolMaxG=1e-4
TolRMSG=3e-5
TolMaxD=1e-3
TolRMSD=6e-4
end

*xyz 1 1
H         -0.5339312631       -0.3911699763        0.1767963430
N         -0.2305285293       -1.3717935766        0.1129905807
C          0.7226741427       -1.8185578528        0.9472030554
C          1.1148403070       -3.1438356017        0.8380425394
C          0.5136979575       -3.9576213490       -0.1116104332
C         -0.4689407514       -3.4449674545       -0.9473275766
C         -0.8387340168       -2.1156471282       -0.8224689602
C         -1.8726867784       -1.4489933527       -1.6713717774
C         -2.5218477223       -0.2908847452       -0.9506797246
C         -1.8895360508        0.9497339792       -0.9110306426
C         -2.4594850292        2.0102810969       -0.2167832197
C         -3.6583968179        1.8018158747        0.4533817391
C         -4.3018135032        0.5721105725        0.4303688647
C         -3.7168922239       -0.4743919389       -0.2746519681
H         -4.2085550267       -1.4356243293       -0.3058071458
C         -5.6107495282        0.3839480400        1.1264423994
H         -5.6678666311        0.9980155898        2.0215660250
H         -6.4231263892        0.6841145603        0.4645403462
H         -5.7663346635       -0.6572149072        1.3973113875
H         -4.1069566954        2.6228377665        0.9927219644
C         -1.8061276130        3.3555880787       -0.1903087735
H         -2.4836948980        4.1068612176       -0.5916706067
H         -0.8948580651        3.3621704389       -0.7819876385
H         -1.5691868600        3.6460592522        0.8327550199
H         -0.9740890293        1.1096139250       -1.4674456019
H         -1.3832492868       -1.0888285064       -2.5826916825
H         -2.6198920666       -2.1832569790       -1.9750867163
H         -0.9439311043       -4.0667845740       -1.6883926845
H          0.8083834581       -4.9919114319       -0.1991065173
H          1.8758717397       -3.5327783459        1.4943636200
C          1.3401993502       -0.8265273430        1.8661349428
C          2.2055654257        0.0974383758        1.0220435481
C          1.7721050162        1.3752633001        0.7041808406
C          2.5701466915        2.2177207132       -0.0615089886
C          3.7887815147        1.7429473926       -0.5264874326
C          4.2322106251        0.4601325926       -0.2318590176
C          3.4258132149       -0.3591509724        0.5469582724
H          3.7607763174       -1.3552317512        0.7976523774
C          5.5628848811       -0.0121713628       -0.7235627179
H          6.3565203548        0.4367328315       -0.1267878818
H          5.6509152499       -1.0928031060       -0.6480254173
H          5.7197340498        0.2854468581       -1.7578913969
H          4.4129565827        2.3913029859       -1.1234661839
C          2.1297505838        3.6099702741       -0.3893426680
H          2.9677747785        4.2991029189       -0.3203586586
H          1.3466965178        3.9447274211        0.2857196415
H          1.7520907094        3.6554307807       -1.4113670192
H          0.8255105532        1.7378512678        1.0816723412
H          1.9504163233       -1.3309530591        2.6141674535
H          0.5695550512       -0.2435405853        2.3736153734
*
