# Molecule 1; Conformer number 6 (B3LYP_def2-TZVP)

!RKS b3lyp def2-TZVP def2/J RIJDX TightSCF defgrid2 NoMOPrint Printbasis
%pal nprocs 4 end
%maxcore 1000
%base "B3LYP_def2-TZVP_1_6"

%geom
TolE=1e-6
TolMaxG=1e-4
TolRMSG=3e-5
TolMaxD=1e-3
TolRMSD=6e-4
end

*xyz 1 1
H         -0.9737333904        0.0418226109        0.1115654191
N         -2.0035795804        0.0743675216        0.0650834488
C         -2.6732330912       -1.0511569780        0.3519356785
C         -4.0579953811       -1.0291879172        0.2842500482
C         -4.7041746003        0.1449750332       -0.0736693519
C         -3.9638848195        1.2819237628       -0.3618664516
C         -2.5797204396        1.2319015820       -0.2882486613
C         -1.7134702288        2.4116128915       -0.5803698409
C         -0.2311100590        2.1376601905       -0.5132887106
C          0.5580091512        2.7752627400        0.4302975997
C          1.9351635310        2.5823685791        0.4525743100
C          2.5036849008        1.7239517489       -0.4779744599
C          1.7323368806        1.0647541194       -1.4263100802
C          0.3598735407        1.2745825203       -1.4313740405
H         -0.2467524594        0.7928344607       -2.1868499207
C          2.3696857603        0.1932182091       -2.4596807301
H          3.3078269300       -0.2163304615       -2.0971033798
H          1.7103768199       -0.6217631405       -2.7469396103
H          2.5842681709        0.7828532091       -3.3511795600
H          3.5736804107        1.5778413982       -0.4778333196
C          2.7796076012        3.3235187385        1.4408237003
H          3.7752699410        2.8936954279        1.5108867505
H          2.3199965310        3.3224853287        2.4273353102
H          2.8828437220        4.3621288085        1.1271300904
H          0.1072390114        3.4512583202        1.1423942896
H         -1.9708020683        2.7820031817       -1.5784010110
H         -1.9747932185        3.2111213116        0.1191614791
H         -4.4501652389        2.2019408431       -0.6427935717
H         -5.7812165803        0.1733522839       -0.1293007822
H         -4.6177083317       -1.9223674869        0.5094409579
C         -1.8985198420       -2.2688485485        0.7344311286
C         -0.4036915219       -2.1143962594        0.5979130390
C          0.2765001280       -2.7477935698       -0.4302716408
C          1.6594299881       -2.6505933706       -0.5316426605
C          2.3455723683       -1.8952146511        0.4092324498
C          1.6862924684       -1.2454960708        1.4440534096
C          0.3038992884       -1.3531804400        1.5228485593
H         -0.2199998816       -0.8767740397        2.3410229292
C          2.4469094887       -0.4528207113        2.4579309799
H          2.5827911394        0.5681272386        2.1042497000
H          1.9135332584       -0.4167364911        3.4044569798
H          3.4299828784       -0.8848031420        2.6246411601
H          3.4217582684       -1.8304576018        0.3499991301
C          2.3923864679       -3.3930476310       -1.6030676203
H          2.6152384872       -4.4027534311       -1.2579151604
H          3.3345552483       -2.9088868215       -1.8442393601
H          1.7925651181       -3.4770094005       -2.5061497905
H         -0.2678557022       -3.3480695294       -1.1450531910
H         -2.2472173624       -3.1083590883        0.1275675985
H         -2.1473111524       -2.5132169985        1.7728482385
*
