# Molecule 1; Conformer number 8 (B3LYP_def2-TZVP)

!RKS b3lyp def2-TZVP def2/J RIJDX TightSCF defgrid2 NoMOPrint Printbasis
%pal nprocs 4 end
%maxcore 1000
%base "B3LYP_def2-TZVP_1_8"

%geom
TolE=1e-6
TolMaxG=1e-4
TolRMSG=3e-5
TolMaxD=1e-3
TolRMSD=6e-4
end

*xyz 1 1
H         -0.4720433201        0.4557424703       -0.1947889108
N         -0.2343672493        1.4572860201       -0.1898487812
C         -0.8926540889        2.2136591510        0.6996027285
C         -0.6132453679        3.5706467308        0.7420009579
C          0.3337507326        4.0961622997       -0.1254485722
C          0.9920394321        3.2672652389       -1.0237201917
C          0.6905310211        1.9148672991       -1.0496794312
C          1.3652433105        0.9096360282       -1.9131232507
C          2.1542473397       -0.0456211820       -1.0317841103
C          3.1809414599        0.4523202376       -0.2418422203
C          3.9269634992       -0.3959029227        0.5655839601
C          3.6269306282       -1.7517918224        0.5614874606
C          2.6065639179       -2.2700292220       -0.2247638693
C          1.8581982887       -1.3995754718       -1.0088378798
H          1.0620278885       -1.7899555114       -1.6272369397
C          2.3421904668       -3.7428397018       -0.2324178687
H          2.1290780664       -4.1013347912        0.7736952914
H          1.5079074267       -3.9932891115       -0.8818676687
H          3.2242714965       -4.2740722726       -0.5862649984
H          4.2099036976       -2.4223532926        1.1754443709
C          5.0507063595        0.1281614268        1.4017881900
H          4.9987211103        1.2093360469        1.5006912196
H          6.0037833994       -0.1258682141        0.9387762202
H          5.0362850791       -0.3201806027        2.3926611902
H          3.4132039707        1.5077589874       -0.2661991207
H          0.6242590801        0.3458855486       -2.4841358806
H          2.0348756809        1.4074322775       -2.6149910409
H          1.7297429725        3.6647570781       -1.7014819318
H          0.5591219634        5.1511082596       -0.1014101726
H         -1.1293601075        4.2028743015        1.4458625876
C         -1.8769472595        1.5336589121        1.5956610786
C         -2.4412686303        0.2840845522        0.9621026590
C         -1.6981600912       -0.8942221283        0.9625080496
C         -2.1881231520       -2.0380132282        0.3429392000
C         -3.4236897218       -1.9775779675       -0.2885552102
C         -4.1793583510       -0.8129525870       -0.3009344807
C         -3.6706297702        0.3200560929        0.3248101189
H         -4.2479899795        1.2328969933        0.3241728284
C         -5.5241297809       -0.7846793463       -0.9521538809
H         -5.5504359013       -1.4380430166       -1.8205357506
H         -6.2783343612       -1.1367073754       -0.2482716608
H         -5.7934281401        0.2236416838       -1.2559048013
H         -3.8116505824       -2.8635716275       -0.7688712698
C         -1.4123786329       -3.3159104088        0.3706324406
H         -1.8924141835       -4.0230930481        1.0460787009
H         -0.3953474328       -3.1507602794        0.7161413607
H         -1.3874830131       -3.7737576392       -0.6162276892
H         -0.7557079113       -0.9436624988        1.4945116997
H         -2.6750651390        2.2314448028        1.8522980582
H         -1.3623288498        1.2737586421        2.5271915188
*
