# Molecule 1; Conformer number 2 (B3LYP_def2-TZVP)

!RKS b3lyp def2-TZVP def2/J RIJDX TightSCF defgrid2 NoMOPrint Printbasis
%pal nprocs 4 end
%maxcore 1000
%base "B3LYP_def2-TZVP_1_2"

%geom
TolE=1e-6
TolMaxG=1e-4
TolRMSG=3e-5
TolMaxD=1e-3
TolRMSD=6e-4
end

*xyz 1 1
H         -0.9514570865        0.0001190652       -0.0013222254
N         -1.9815242743        0.0004937625       -0.0008828590
C         -2.5992183213       -1.1767273152       -0.1646790784
C         -3.9855232782       -1.1909119159       -0.1670025792
C         -4.6764594208        0.0013676476        0.0004707674
C         -3.9845687311        1.1931695399        0.1673429793
C         -2.5982635110        1.1780853414        0.1636682812
C         -1.7433436636        2.3895454267        0.3417205613
C         -0.2837399406        2.1215204301        0.0593617828
C          0.6593526190        2.1561731268        1.0760712226
C          2.0017544174        1.9231654217        0.8045218224
C          2.3799660774        1.6339793624       -0.5002981991
C          1.4546297796        1.5849890985       -1.5324006849
C          0.1185282819        1.8278490812       -1.2386965755
H         -0.6115453940        1.8133525276       -2.0367619925
C          1.8730887490        1.3127973157       -2.9420027692
H          2.8985610173        0.9591391105       -2.9848385955
H          1.2220299907        0.5730281968       -3.4038643763
H          1.8037848546        2.2270667672       -3.5307224526
H          3.4233450296        1.4618250609       -0.7179079674
C          3.0282897363        2.0242339036        1.8862837215
H          2.5896101799        1.8512928458        2.8652317512
H          3.4614915035        3.0245888256        1.8845305791
H          3.8358157230        1.3152031644        1.7239577136
H          0.3531469651        2.3898518217        2.0855316623
H         -2.1154004369        3.1805340645       -0.3158362686
H         -1.8662181013        2.7536325827        1.3661928440
H         -4.5107671301        2.1244937026        0.2995227739
H         -5.7554356782        0.0017342111        0.0009797453
H         -4.5124670500       -2.1218995600       -0.2985838618
C         -1.7451576408       -2.3886922240       -0.3434211633
C         -0.2855551497       -2.1217241236       -0.0600623801
C          0.6581248168       -2.1565281837       -1.0762354101
C          2.0004298867       -1.9240209790       -0.8038648306
C          2.3779416749       -1.6350953218        0.5012257776
C          1.4520177704       -1.5859767053        1.5327911835
C          0.1160267398       -1.8284635595        1.2382943248
H         -0.6145233340       -1.8138795069        2.0359187063
C          1.8699248574       -1.3141322928        2.9426207118
H          1.2157336571       -0.5781731201        3.4061124739
H          1.8051797020       -2.2297289277        3.5298142690
H          2.8938294877       -0.9559612889        2.9854727425
H          3.4212219979       -1.4631576062        0.7194624186
C          3.0277032790       -2.0250339732       -1.8849229224
H          3.8328392819       -1.3128864174       -1.7243310299
H          2.5889225637       -1.8563223900       -2.8645565422
H          3.4641875763       -3.0239493282       -1.8799899525
H          0.3523722812       -2.3898895556       -2.0859105898
H         -1.8676772396       -2.7516669786       -1.3683383869
H         -2.1181119913       -3.1800740901        0.3131324541
*
