# Molecule 1; Conformer number 1 (B3LYP_def2-TZVP)

!RKS b3lyp def2-TZVP def2/J RIJDX TightSCF defgrid2 NoMOPrint Printbasis
%pal nprocs 4 end
%maxcore 1000
%base "B3LYP_def2-TZVP_1_1"

%geom
TolE=1e-6
TolMaxG=1e-4
TolRMSG=3e-5
TolMaxD=1e-3
TolRMSD=6e-4
end

*xyz 1 1
H         -0.9748690079       -0.0263877775       -0.0714198918
N         -2.0065278570       -0.0341263860       -0.0426064541
C         -2.6129443454       -1.1773511156        0.3056450663
C         -3.9988263960       -1.1979952955        0.3531902361
C         -4.7083058558       -0.0463596525        0.0454403907
C         -4.0308755189        1.1117787657       -0.3074117793
C         -2.6448842997        1.1034961120       -0.3500092514
C         -1.8344985271        2.2999306717       -0.7265054444
C         -0.3444083345        2.0985427413       -0.5985194019
C          0.3261660536        1.2773659918       -1.4996518485
C          1.7041041908        1.1179488009       -1.4250147975
C          2.3970175820        1.7816198822       -0.4220958245
C          1.7478946140        2.5971879342        0.4946360753
C          0.3686184485        2.7422112687        0.4006208042
H         -0.1464734564        3.3848872165        1.1000027694
C          2.5159957597        3.3463572996        1.5361842488
H          2.7393155689        4.3493934043        1.1723670504
H          1.9405972479        3.4480467604        2.4533588910
H          3.4589676631        2.8553326196        1.7594603650
H          3.4702154671        1.6767939343       -0.3669606308
C          2.4244417989        0.2915510101       -2.4410515548
H          2.6183495184        0.8930381863       -3.3293163614
H          1.8292347572       -0.5670765426       -2.7416745813
H          3.3792239282       -0.0534319286       -2.0558478396
H         -0.2206134574        0.7912503572       -2.2969704533
H         -2.0807600298        2.5611074153       -1.7614280912
H         -2.1539391705        3.1448141930       -0.1108289008
H         -4.5674305115        2.0149820188       -0.5484361598
H         -5.7865697299       -0.0510975260        0.0811777588
H         -4.5102537353       -2.1058413230        0.6289503785
C         -1.7703791605       -2.3689491222        0.6199998330
C         -0.2847746648       -2.1148316479        0.5429908733
C          0.4861931692       -2.7340517179       -0.4283145259
C          1.8629471286       -2.5464325523       -0.4685653051
C          2.4503426298       -1.7130242395        0.4733340569
C          1.6986363619       -1.0733016200        1.4492493735
C          0.3248633471       -1.2762534775        1.4708461294
H         -0.2680906027       -0.8074139211        2.2450325066
C          2.3533340517       -0.2261981483        2.4923560056
H          3.3068517696        0.1562846646        2.1408514177
H          1.7165961266        0.6078907296        2.7763840473
H          2.5401089377       -0.8248618398        3.3840391435
H          3.5210632541       -1.5744959854        0.4596427726
C          2.6944491961       -3.2693657590       -1.4795780391
H          3.6197705573       -2.7371720508       -1.6816712981
H          2.1511245645       -3.4072407683       -2.4114088563
H          2.9539593966       -4.2569177851       -1.0978153078
H          0.0189523578       -3.3908922766       -1.1479206607
H         -2.0466603950       -3.1770648522       -0.0633952144
H         -2.0318669677       -2.7142038818        1.6257623026
*
