# Molecule 1; Conformer number 16 (B3LYP_def2-TZVP)

!RKS b3lyp def2-TZVP def2/J RIJDX TightSCF defgrid2 NoMOPrint Printbasis
%pal nprocs 4 end
%maxcore 1000
%base "B3LYP_def2-TZVP_1_16"

%geom
TolE=1e-6
TolMaxG=1e-4
TolRMSG=3e-5
TolMaxD=1e-3
TolRMSD=6e-4
end

*xyz 1 1
H          1.3435726700       -0.1304971598       -0.5483751006
N          0.7474670002       -0.9556651200       -0.3948359008
C          1.4030139204       -2.1156937499       -0.2387722510
C          0.6602755406       -3.2660871601       -0.0247690213
C         -0.7240348794       -3.1820075104        0.0127436685
C         -1.3541424996       -1.9565764305       -0.1564260414
C         -0.5898323599       -0.8196678003       -0.3617025610
C         -1.1506872301        0.5484722896       -0.5615281208
C         -2.6146306202        0.6427115092       -0.2017134911
C         -2.9951946404        0.6614912989        1.1335773089
C         -4.3357737305        0.7351210785        1.4855117687
C         -5.2882185803        0.7874754885        0.4752570486
C         -4.9296360901        0.7698214588       -0.8653194914
C         -3.5812021901        0.6928178392       -1.1934329312
H         -3.2871563499        0.6791212795       -2.2333413612
C         -5.9752532800        0.8529589488       -1.9315992115
H         -5.5860363198        0.5240743891       -2.8916323915
H         -6.8400903899        0.2466903086       -1.6727500318
H         -6.3132854102        1.8836791688       -2.0368961014
H         -6.3333232104        0.8483373182        0.7408552784
C         -4.7581137307        0.7707839181        2.9202671186
H         -5.1470150010        1.7575499780        3.1687075488
H         -3.9242544108        0.5542129882        3.5828137987
H         -5.5515566606        0.0491694379        3.1037803084
H         -2.2401954805        0.6236086589        1.9065548490
H         -0.5728758904        1.2607529596        0.0361966194
H         -1.0167731000        0.8262912999       -1.6124197808
H         -2.4281904097       -1.8713076507       -0.1272358215
H         -1.3133291592       -4.0710168606        0.1755076682
H          1.1623264608       -4.2106658300        0.1073244386
C          2.8962427204       -2.0953664095       -0.3219203307
C          3.4659744201       -0.7062879194       -0.1659419704
C          4.0219854198       -0.3054929595        1.0379592798
C          4.5167162395        0.9849202506        1.1965888501
C          4.4267206495        1.8703618808        0.1311550403
C          3.8713751797        1.4940144209       -1.0856259699
C          3.3865435901        0.1989707108       -1.2230354102
H          2.9902038103       -0.1210306491       -2.1785766003
C          3.8100472397        2.4660478711       -2.2206001897
H          3.3423646594        3.3968149209       -1.9043194296
H          4.8174278097        2.7051104214       -2.5578980295
H          3.2558515899        2.0598263211       -3.0630258198
H          4.8104046392        2.8733719908        0.2440889506
C          5.1558057892        1.4031273404        2.4811040503
H          6.2352511192        1.2680848307        2.4128138805
H          4.7947982592        0.8050340402        3.3138467501
H          4.9656261389        2.4534650004        2.6868593305
H          4.0870294598       -1.0050393797        1.8583726297
H          3.1846299307       -2.5064045892       -1.2956693508
H          3.3046345805       -2.7655223296        0.4368463392
*
