# Molecule 2; Conformer number 5 (B3LYP_def2-TZVP)

!RKS b3lyp def2-TZVP def2/J RIJDX TightSCF defgrid2 NoMOPrint Printbasis
%pal nprocs 4 end
%maxcore 1000
%base "B3LYP_def2-TZVP_2_5"

%geom
TolE=1e-6
TolMaxG=1e-4
TolRMSG=3e-5
TolMaxD=1e-3
TolRMSD=6e-4
end

*xyz 1 1
C          0.8708216999       -0.8835349912       -0.8782720103
N          0.0824316301       -0.1886527907       -0.0364532106
C         -0.8021024299       -0.7391943802        0.8134624397
C         -0.9157870802       -2.1213011101        0.8308984804
C         -0.1223902704       -2.8840554607       -0.0123134293
C          0.7757267897       -2.2647808812       -0.8714031496
H          1.3957388896       -2.8472092616       -1.5327781494
H         -0.2024304005       -3.9599623906       -0.0011026188
H         -1.6175478402       -2.5900190697        1.5006176806
C         -1.6717675997        0.1706525204        1.6047336094
C         -2.8835297197        0.4820443102        0.7361230093
C         -3.9989058699       -0.3424729596        0.7764952097
C         -5.0954228999       -0.0693938298       -0.0225437403
C         -5.0795994997        1.0221256498       -0.8745063308
C         -3.9668080196        1.8445665896       -0.9209769713
C         -2.8690657796        1.5722535398       -0.1226974512
H         -2.0134659795        2.2330927196       -0.1526499116
H         -3.9530837595        2.7021992993       -1.5754509817
H         -5.9345691997        1.2350858997       -1.4964446209
H         -5.9631340500       -0.7085733296        0.0237593700
H         -4.0204087300       -1.1895764393        1.4456705101
H         -1.1477319796        1.0938863704        1.8563030589
H         -1.9945848398       -0.3157398892        2.5240370496
H          0.1727482703        0.8260869393       -0.0397738010
C          1.8508294000       -0.1136091418       -1.6913320307
C          2.9615342802        0.3433066285       -0.7575108310
C          2.9593150904        1.6275252987       -0.2313630616
C          3.9676066605        2.0292293989        0.6287500882
C          4.9751190104        1.1461702789        0.9771875485
C          4.9763942801       -0.1385312613        0.4597440991
C          3.9704494400       -0.5409228415       -0.4010259406
H          3.9777124498       -1.5411308617       -0.8080826302
H          5.7629291300       -0.8281739313        0.7230360594
H          5.7611750405        1.4605195891        1.6453379984
H          3.9676108507        3.0344373891        1.0206691177
H          2.1906671805        2.3334471687       -0.5164075819
H          1.3736822502        0.7557271881       -2.1476298511
H          2.2620242999       -0.7416875222       -2.4803054704
*
