# Molecule 1; Conformer number 14 (M06L_def2-TZVP)

!RKS M06L def2-TZVP def2/J RI TightSCF defgrid2 NoMOPrint Printbasis
%pal nprocs 4 end
%maxcore 1000
%base "M06L_def2-TZVP_1_14"

%geom
TolE=1e-6
TolMaxG=1e-4
TolRMSG=3e-5
TolMaxD=1e-3
TolRMSD=6e-4
end

*xyz 1 1
H         -0.1326174695       -0.4341389189       -0.0054742503
N         -0.0606047097        0.5823498412       -0.0294781197
C          0.7265502402        1.1784602208        0.8826681407
C          0.8170091700        2.5619935108        0.8602642615
C          0.0973014199        3.2789489412       -0.0837505081
C         -0.7023316500        2.6131870916       -1.0029421085
C         -0.7725197698        1.2305649716       -0.9692469193
C         -1.6500867396        0.4072794020       -1.8438072398
C         -2.7739146895       -0.1329805988       -0.9730173702
C         -3.8681639197        0.6694470409       -0.6926868997
C         -4.8945140696        0.2061731802        0.1215207500
C         -4.7928025194       -1.0697485401        0.6589726292
C         -3.7016635992       -1.8877269197        0.3949512987
C         -2.6869098993       -1.4025704791       -0.4203349010
H         -1.8453183692       -2.0423032088       -0.6537201913
C         -3.6368692790       -3.2644767901        0.9765670079
H         -3.7347298791       -3.2251209907        2.0601620579
H         -4.4587704889       -3.8683786500        0.5955084175
H         -2.7025481389       -3.7599350798        0.7255301976
H         -5.5855609993       -1.4406910106        1.2915758590
C         -6.0952004198        1.0531881998        0.3974963604
H         -6.9205337997        0.7398663401       -0.2415668698
H         -5.8921761099        2.1021027800        0.1978706011
H         -6.4169992598        0.9435834692        1.4303487804
H         -3.9323522098        1.6587638411       -1.1216553691
H         -2.0568035997        1.0142745924       -2.6510425795
H         -1.0882187794       -0.4225695877       -2.2770138703
H         -1.2647937401        3.1596928620       -1.7418149882
H          0.1582777197        4.3560130012       -0.1039049874
H          1.4406827199        3.0677620005        1.5786118018
C          1.5237200303        0.3034339504        1.7809752902
C          2.7066624904       -0.1899398189        0.9586684699
C          2.6479575507       -1.4155743786        0.3120743892
C          3.7179394608       -1.8602159379       -0.4539772211
C          4.8359542906       -1.0448037977       -0.5744443906
C          4.9101164704        0.1886467620        0.0582606602
C          3.8288275503        0.6112526513        0.8216406704
H          3.8726637301        1.5663875010        1.3240612610
C          6.1380838303        1.0326962723       -0.0646486793
H          6.9105563503        0.6580380320        0.6066047805
H          6.5333282603        0.9949467629       -1.0769321493
H          5.9337340701        2.0672164021        0.1984816413
H          5.6708697907       -1.3835306771       -1.1697844507
C          3.6837824110       -3.1932360575       -1.1319189419
H          3.9226173110       -3.0901003968       -2.1887056418
H          2.7093798411       -3.6648451978       -1.0352904522
H          4.4289436211       -3.8531660277       -0.6903399522
H          1.7813164508       -2.0528553688        0.4292412688
H          0.9316026205       -0.5457264600        2.1255443897
H          1.8774279902        0.8633854599        2.6450471505
*
