# Molecule 2; Conformer number 6 (M06L_def2-TZVP)

!RKS M06L def2-TZVP def2/J RI TightSCF defgrid2 NoMOPrint Printbasis
%pal nprocs 4 end
%maxcore 1000
%base "M06L_def2-TZVP_2_6"

%geom
TolE=1e-6
TolMaxG=1e-4
TolRMSG=3e-5
TolMaxD=1e-3
TolRMSD=6e-4
end

*xyz 1 1
C          0.6625634513       -0.5219965599       -0.1467491301
N         -0.6774114487       -0.6025916003       -0.2412357004
C         -1.3867777385       -1.7345811803       -0.1161225602
C         -0.7019044783       -2.9149575201        0.1275122104
C          0.6809932717       -2.8877635898        0.2306759508
C          1.3683212915       -1.6886475197        0.0938452705
H          2.4425125214       -1.6498302795        0.1734371908
H          1.2253024318       -3.7999583496        0.4198913913
H         -1.2476460282       -3.8384925702        0.2328026206
C         -2.8730394985       -1.6559744207       -0.2631803307
C         -3.4013912488       -0.2503539408       -0.1092278313
C         -3.9519828392        0.1671255996        1.0953500784
C         -4.4119652495        1.4650518395        1.2399513478
C         -4.3168434494        2.3596278492        0.1865670375
C         -3.7659396890        1.9531465088       -1.0171529922
C         -3.3071848687        0.6543049989       -1.1651243516
H         -2.9108735883        0.3314780486       -2.1191116514
H         -3.7013623189        2.6419361785       -1.8451479625
H         -4.6812790796        3.3682911991        0.2993920070
H         -4.8506901898        1.7756474498        2.1750809575
H         -4.0346313193       -0.5282941701        1.9173204586
H         -3.3377479585       -2.3214871005        0.4669518694
H         -3.1343456281       -2.0425449811       -1.2545212206
H         -1.2247854688        0.2487814796       -0.4152106709
C          1.2822490611        0.8263724301       -0.3146140804
C          2.7788381110        0.8226450605       -0.1137941100
C          3.3121516506        0.9468533411        1.1628592801
C          4.6832682806        0.9346830514        1.3503102805
C          5.5309278509        0.7962545112        0.2637890608
C          5.0046408313        0.6702111706       -1.0107508093
C          3.6332622713        0.6817433503       -1.1991527697
H          3.2269089916        0.5882468998       -2.1960025198
H          5.6612133915        0.5671444004       -1.8605562991
H          6.5996043709        0.7917249915        0.4097546411
H          5.0891557503        1.0378679119        2.3445492906
H          2.6534643404        1.0605702512        2.0119977799
H          0.8161316107        1.5167771703        0.3962083992
H          1.0489458813        1.1932257197       -1.3197764906
*
