# Molecule 2; Conformer number 3 (M06L_def2-TZVP)

!RKS M06L def2-TZVP def2/J RI TightSCF defgrid2 NoMOPrint Printbasis
%pal nprocs 4 end
%maxcore 1000
%base "M06L_def2-TZVP_2_3"

%geom
TolE=1e-6
TolMaxG=1e-4
TolRMSG=3e-5
TolMaxD=1e-3
TolRMSD=6e-4
end

*xyz 1 1
C         -0.7901074904        0.9344037600       -0.8539932600
N          0.0740692198        0.3783900805        0.0127586501
C          0.8517423398        1.0674608710        0.8679397397
C          0.7673078896        2.4494320310        0.8590597091
C         -0.1117488506        3.0744267405       -0.0154849311
C         -0.8952321506        2.3168738000       -0.8732727206
H         -1.5792294708        2.7910896295       -1.5575709407
H         -0.1840482808        4.1509271305       -0.0284536615
H          1.3805219996        3.0278754014        1.5303105887
C          1.8021770701        0.2842754716        1.7047192799
C          2.8401552001       -0.3306102187        0.7801155100
C          3.9064116399        0.4379215613        0.3334170695
C          4.8437067398       -0.1057803689       -0.5273408104
C          4.7161717800       -1.4170566491       -0.9547720298
C          3.6516792402       -2.1856367791       -0.5157495893
C          2.7121505202       -1.6426213289        0.3448080106
H          1.8991350604       -2.2600677289        0.7039415410
H          3.5540994403       -3.2111077193       -0.8368730588
H          5.4487282699       -1.8413355593       -1.6229689097
H          5.6752989097        0.4947101511       -0.8612855208
H          4.0110386497        1.4588303315        0.6698478590
H          1.2727890703       -0.5070058283        2.2398779303
H          2.2848295201        0.9340810520        2.4333255295
H          0.1566690200       -0.6376907395        0.0192689605
C         -1.6404078904        0.0218504395       -1.6637760595
C         -2.7673165202       -0.4563538803       -0.7587970891
C         -2.6746812599       -1.6752659600       -0.1018107286
C         -3.6984056997       -2.0970832098        0.7297714518
C         -4.8125414498       -1.2975042599        0.9196217916
C         -4.9048600901       -0.0773197402        0.2710215711
C         -3.8835120303        0.3448005496       -0.5618164493
H         -3.9626405105        1.2934345694       -1.0716002297
H         -5.7740176502        0.5462806997        0.4100414409
H         -5.6098391396       -1.6273502897        1.5666886119
H         -3.6264555994       -3.0533083496        1.2243301122
H         -1.8190847798       -2.3176481199       -0.2608763084
H         -1.0635974803       -0.8339443206       -2.0183741492
H         -2.0530578006        0.5498061990       -2.5222197696
*
