# Molecule 2; Conformer number 1 (M06L_def2-TZVP)

!RKS M06L def2-TZVP def2/J RI TightSCF defgrid2 NoMOPrint Printbasis
%pal nprocs 4 end
%maxcore 1000
%base "M06L_def2-TZVP_2_1"

%geom
TolE=1e-6
TolMaxG=1e-4
TolRMSG=3e-5
TolMaxD=1e-3
TolRMSD=6e-4
end

*xyz 1 1
C         -2.0786698084        1.1779165199        0.1490776336
N         -1.4566811425        0.0003399125       -0.0041270792
C         -2.0770672261       -1.1786641912       -0.1528510379
C         -3.4633396540       -1.1946997811       -0.1488257593
C         -4.1570787166       -0.0027087972        0.0054500049
C         -3.4649841700        1.1908308761        0.1548805494
H         -3.9909440827        2.1239154011        0.2756320290
H         -5.2360067882       -0.0039579620        0.0093611283
H         -3.9880607168       -2.1289636398       -0.2657722822
C         -1.2394344915       -2.4050198107       -0.3177144584
C          0.2413396264       -2.1412066949       -0.1930451741
C          0.9405639501       -1.5670334387       -1.2518638157
C          2.3020662172       -1.3424721158       -1.1508655717
C          2.9750999434       -1.6808209954        0.0111657367
C          2.2832452423       -2.2362016677        1.0739192235
C          0.9212145850       -2.4632174926        0.9743258121
H          0.3886917819       -2.9113337275        1.8003340600
H          2.8050549089       -2.5057032693        1.9787273313
H          4.0391051913       -1.5214972451        0.0840336035
H          2.8371190821       -0.9150965158       -1.9840693319
H          0.4220480067       -1.3225076018       -2.1687283942
H         -1.4575977161       -2.8367361434       -1.2999570243
H         -1.5546607397       -3.1445877095        0.4231126472
H         -0.4265655569        0.0014340119       -0.0073646561
C         -1.2426312808        2.4062577935        0.3070534511
C          0.2386549850        2.1425425172        0.1885921997
C          0.9224185831        2.4586396157       -0.9781505477
C          2.2847941079        2.2312305248       -1.0720065982
C          2.9730365678        1.6811620480       -0.0041575613
C          2.2961486093        1.3489118427        1.1574153289
C          0.9343873975        1.5741474168        1.2527939439
H          0.4126798443        1.3343016832        2.1690489953
H          2.8284472818        0.9257020299        1.9945036426
H          4.0372240957        1.5211594900       -0.0727430766
H          2.8096214983        2.4961318856       -1.9764301557
H          0.3926459873        2.9024605510       -1.8082517093
H         -1.4642064553        2.8459406044        1.2849139481
H         -1.5562180686        3.1394506486       -0.4408856090
*
