# Molecule 1; Conformer number 3 (M06L_def2-TZVP)

!RKS M06L def2-TZVP def2/J RI TightSCF defgrid2 NoMOPrint Printbasis
%pal nprocs 4 end
%maxcore 1000
%base "M06L_def2-TZVP_1_3"

%geom
TolE=1e-6
TolMaxG=1e-4
TolRMSG=3e-5
TolMaxD=1e-3
TolRMSD=6e-4
end

*xyz 1 1
H         -0.9468811703        0.0044196197        0.0096675902
N         -1.9762588203        0.0005906595        0.0061701701
C         -2.5927841500       -1.1243216804        0.3932475811
C         -3.9789771700       -1.1433025607        0.3931090610
C         -4.6737434503       -0.0091076212       -0.0035577801
C         -3.9842830505        1.1299014886       -0.3956835610
C         -2.5980325405        1.1208453590       -0.3859402009
C         -1.7488476008        2.2785365488       -0.7951511518
C         -0.2907753108        2.0798810995       -0.4543423415
C          0.6333568694        1.7650892189       -1.4407021012
C          1.9770794294        1.6055306695       -1.1266037609
C          2.3746709992        1.7460121707        0.1965008490
C          1.4667112791        2.0434801714        1.2025639687
C          0.1286690091        2.2042348007        0.8644358384
H         -0.5882708611        2.4549500612        1.6341286481
C          1.9103569889        2.2299528327        2.6185502685
H          1.9203689486        3.2917034729        2.8639166676
H          1.2271168490        1.7392348432        3.3089564689
H          2.9121610590        1.8395577031        2.7704675289
H          3.4200989693        1.6391426412        0.4439357292
C          2.9821946896        1.3349667788       -2.1992234206
H          3.8024219097        0.7307820393       -1.8212452200
H          3.4002187893        2.2776687586       -2.5528006114
H          2.5262906698        0.8319044279       -3.0476184102
H          0.3118485995        1.6691985979       -2.4678856311
H         -1.8640382008        2.4276247879       -1.8730756520
H         -2.1304982611        3.1823944291       -0.3125848126
H         -4.5122250307        2.0164488082       -0.7072196518
H         -5.7526981203       -0.0129464615       -0.0075228302
H         -4.5027173798       -2.0337945506        0.7004516117
C         -1.7380300198       -2.2758112298        0.8079468621
C         -0.2817846698       -2.0754159997        0.4598689821
C          0.1317878303       -2.2030945308       -0.8603018978
C          1.4685219203       -2.0438330607       -1.2046331778
C          2.3808578002       -1.7437449296       -0.2035114280
C          1.9890358400       -1.5998091386        1.1210805219
C          0.6468280600       -1.7584348486        1.4414726119
H          0.3298358799       -1.6602706578        2.4698513918
C          3.0000844899       -1.3273873474        2.1876697417
H          3.4426572301       -2.2670597770        2.5185679426
H          3.8029377597       -0.6989742775        1.8116816312
H          2.5434282197       -0.8497992567        3.0502035413
H          3.4252423702       -1.6376806596       -0.4556851080
C          1.9057690805       -2.2348425918       -2.6220548076
H          1.8960475608       -3.2958970321       -2.8702198767
H          2.9139673604       -1.8617535517       -2.7751397978
H          1.2298495104       -1.7302101126       -3.3097027881
H         -0.5885407195       -2.4555069816       -1.6262583176
H         -2.1185569495       -3.1848563703        0.3344519929
H         -1.8479832298       -2.4164521089        1.8876064723
*
