# Molecule 1; Conformer number 12 (PBE0_D3_def2-TZVP)

!RKS PBE0 d3bj def2-TZVP def2/J RIJDX TightSCF defgrid2 NoMOPrint Printbasis
%pal nprocs 4 end
%maxcore 1000
%base "PBE0_D3_def2-TZVP_1_12"

%geom
TolE=1e-6
TolMaxG=1e-4
TolRMSG=3e-5
TolMaxD=1e-3
TolRMSD=6e-4
end

*xyz 1 1
H          1.2542360402        0.4864077603        0.5735462805
N          0.6622739903        1.2336009704        0.1862821106
C         -0.6511545297        1.2606387905        0.4630585306
C         -1.4093812896        2.2919924207       -0.0716616793
C         -0.7970201395        3.2504259407       -0.8643665792
C          0.5653464405        3.1733965605       -1.1226313992
C          1.3017685204        2.1360945304       -0.5754343793
C          2.7753141703        1.9721815002       -0.7744604293
C          3.2838130602        0.6280621101       -0.3135309095
C          3.5959521900       -0.3611608199       -1.2325043496
C          4.0415379199       -1.6085869700       -0.8084752197
C          4.1514324099       -1.8510696401        0.5542829902
C          3.8416561700       -0.8776555202        1.4958938204
C          3.4016766402        0.3626572399        1.0496556605
H          3.1922874203        1.1430101299        1.7703086106
C          3.9968974100       -1.1602537503        2.9562468903
H          5.0547876300       -1.2071683705        3.2114930603
H          3.5360537601       -0.3845485103        3.5628076704
H          3.5556802499       -2.1213406803        3.2124630702
H          4.4997167398       -2.8157095302        0.8921958301
C          4.4198665997       -2.6617131799       -1.7991772798
H          3.9441313898       -2.4879507597       -2.7608539298
H          4.1464546896       -3.6504840399       -1.4390943499
H          5.4993054597       -2.6506485500       -1.9498110599
H          3.5083276501       -0.1583028297       -2.2898649796
H          3.0095819003        2.1279655303       -1.8297212393
H          3.2809547004        2.7696285601       -0.2191587493
H          1.0542799606        3.9091010505       -1.7402165791
H         -1.3795873394        4.0558616408       -1.2835519691
H         -2.4672068796        2.3269562108        0.1320964808
C         -1.2333219199        0.1790908305        1.3028552905
C         -2.5164695599       -0.3355977193        0.6805694005
C         -3.7321001299       -0.1675886692        1.3223833205
C         -4.9076031600       -0.6327859290        0.7441683205
C         -4.8388786701       -1.2566673589       -0.4934993196
C         -3.6300619201       -1.4312353190       -1.1558802896
C         -2.4689208300       -0.9630293092       -0.5573404196
H         -1.5189586500       -1.0957438192       -1.0573332596
C         -3.5947348902       -2.1172568188       -2.4850056497
H         -4.2996233201       -1.6527382987       -3.1718854196
H         -2.6008151802       -2.0798194189       -2.9231489697
H         -3.8838098603       -3.1613870788       -2.3738115298
H         -5.7466689101       -1.6193178287       -0.9526789896
C         -6.2191310799       -0.4821133289        1.4467709405
H         -6.5010308001       -1.4283408589        1.9081599604
H         -7.0040341699       -0.2102150487        0.7449702805
H         -6.1640529998        0.2721790110        2.2272713906
H         -3.7708272298        0.3194973007        2.2862022006
H         -1.4575018798        0.5779214904        2.2959629206
H         -0.5148874000       -0.6361910596        1.4221046404
*
