# Molecule 1; Conformer number 5 (PBE0_D3_def2-TZVP)

!RKS PBE0 d3bj def2-TZVP def2/J RIJDX TightSCF defgrid2 NoMOPrint Printbasis
%pal nprocs 4 end
%maxcore 1000
%base "PBE0_D3_def2-TZVP_1_5"

%geom
TolE=1e-6
TolMaxG=1e-4
TolRMSG=3e-5
TolMaxD=1e-3
TolRMSD=6e-4
end

*xyz 1 1
H         -0.9425526004        0.0084194563        0.0260061658
N         -1.9719275903        0.0227532159        0.0139770604
C         -2.6089833619       -1.1184815533        0.3086318268
C         -3.9950987439       -1.1135088861        0.2965935135
C         -4.6665826674        0.0599724765       -0.0186071948
C         -3.9553845667        1.2139686467       -0.3173008956
C         -2.5694711389        1.1806537116       -0.2960113277
C         -1.6952029492        2.3503233454       -0.6075217880
C         -0.2447763453        2.1060949201       -0.2628621165
C          0.7184914279        2.0060221564       -1.2570221181
C          2.0528918156        1.8048451715       -0.9303025305
C          2.4035919773        1.6820571269        0.4086843402
C          1.4579939203        1.7670950209        1.4191302994
C          0.1293909471        1.9773996724        1.0694267007
H         -0.6162103099        2.0687372017        1.8477862156
C          1.8477985064        1.6757140691        2.8600133136
H          1.7943553630        2.6622892348        3.3196048244
H          1.1703869052        1.0213489872        3.4053724970
H          2.8631646563        1.3068542066        2.9683723477
H          3.4419828629        1.5369999767        0.6662586604
C          3.1077816870        1.7561622722       -1.9889473137
H          3.7675381143        0.9043106475       -1.8381708614
H          3.7193613743        2.6565653971       -1.9396313512
H          2.6698339477        1.6998296196       -2.9821259224
H          0.4324720425        2.1099072032       -2.2936939058
H         -1.7925718958        2.5816877842       -1.6725566643
H         -2.0697578550        3.2227409204       -0.0644047139
H         -4.4663121884        2.1301066900       -0.5650418413
H         -5.7453817582        0.0749217059       -0.0317454132
H         -4.5371128392       -2.0151517271        0.5310596502
C         -1.7715728235       -2.3099255566        0.6388745586
C         -0.3180247583       -2.1090744552        0.2796970340
C          0.0482875150       -2.0395572840       -1.0612111659
C          1.3738562626       -1.8574574058       -1.4264437171
C          2.3285368870       -1.7386068452       -0.4236516594
C          1.9874132141       -1.8030825485        0.9192676303
C          0.6511512582       -1.9787171670        1.2619118839
H          0.3727810171       -2.0391222395        2.3041699203
C          3.0424273159       -1.7308823278        1.9757361103
H          3.4850725663       -2.7170894363        2.1162856993
H          3.8385167371       -1.0507042033        1.6845761046
H          2.6266605522       -1.4115409412        2.9273712383
H          3.3653790374       -1.6138886805       -0.6982499715
C          1.7758883161       -1.8015405209       -2.8655588925
H          2.5509420900       -2.5378163541       -3.0688690403
H          2.1817381643       -0.8210286636       -3.1074947486
H          0.9300623285       -1.9995749784       -3.5184322047
H         -0.7070070609       -2.1529989098       -1.8269147661
H         -2.1748536244       -3.1810121959        0.1152844763
H         -1.8681320403       -2.5163852590        1.7091748929
*
