# Molecule 1; Conformer number 4 (PBE0_D3_def2-TZVP)

!RKS PBE0 d3bj def2-TZVP def2/J RIJDX TightSCF defgrid2 NoMOPrint Printbasis
%pal nprocs 4 end
%maxcore 1000
%base "PBE0_D3_def2-TZVP_1_4"

%geom
TolE=1e-6
TolMaxG=1e-4
TolRMSG=3e-5
TolMaxD=1e-3
TolRMSD=6e-4
end

*xyz 1 1
H          0.9536319402        0.0203229907       -0.0347586599
N          1.9833539402        0.0151864412       -0.0228460898
C          2.6070057608       -1.0704397986       -0.5021272394
C          3.9930991608       -1.0918389280       -0.4875858594
C          4.6857881802        0.0000573025        0.0156504703
C          3.9913913197        1.0996499424        0.4989165499
C          2.6051169897        1.0937200117        0.4739398298
C          1.7664873591        2.2206112915        0.9785390794
C          0.2972641892        2.0539331407        0.6730549094
C         -0.2295045010        2.5600499700       -0.5068420308
C         -1.5872103909        2.4496882093       -0.7818978408
C         -2.4044621206        1.8147377492        0.1429028594
C         -1.8973452004        1.2853678998        1.3218745096
C         -0.5358304305        1.3999183506        1.5721203396
H         -0.1296214203        1.0067393111        2.4936390998
C         -2.8016885802        0.6548428797        2.3311412098
H         -3.6868335899        0.2401815492        1.8575082899
H         -2.2880559998       -0.1287975298        2.8817094701
H         -3.1289275606        1.4088238198        3.0473900595
H         -3.4646761406        1.7480269986       -0.0494168206
C         -2.1531039011        3.0492837286       -2.0298474510
H         -2.2751530817        4.1241584486       -1.8965231114
H         -3.1270205609        2.6279068081       -2.2621226009
H         -1.4856902710        2.8967373286       -2.8755906109
H          0.4156241288        3.0708971801       -1.2075924909
H          1.9135118891        2.2974099219        2.0604981794
H          2.1382048287        3.1534537615        0.5466654991
H          4.5149050093        1.9550452428        0.8939123396
H          5.7645709302       -0.0061742669        0.0313090503
H          4.5182263612       -1.9531470578       -0.8672577291
C          1.7691728313       -2.1854928592       -1.0332779291
C          0.3037689512       -2.0391934598       -0.6993633392
C         -0.1911474586       -2.5541513396        0.4904937909
C         -1.5440773886       -2.4630177002        0.7940202309
C         -2.3894361189       -1.8391027809       -0.1129727894
C         -1.9145238391       -1.3014057110       -1.3013747495
C         -0.5567247190       -1.3957468805       -1.5797258095
H         -0.1758547592       -0.9956504806       -2.5090961796
C         -2.8479058993       -0.6831676718       -2.2916497298
H         -2.3609486897        0.1181494082       -2.8410404100
H         -3.1662544889       -1.4376754822       -3.0113438395
H         -3.7363442695       -0.2950743921       -1.8019425399
H         -3.4463516089       -1.7881407913        0.1011738006
C         -2.0748564384       -3.0707074800        2.0534278210
H         -3.0550407886       -2.6724109204        2.2995918509
H         -1.3980456285       -2.8971216694        2.8875935510
H         -2.1718079879       -4.1489769201        1.9272072214
H          0.4757317917       -3.0566104691        1.1767798711
H          2.1536078518       -3.1308110389       -0.6423583588
H          1.8985964814       -2.2204881395       -2.1198323891
*
