# Molecule 1; Conformer number 10 (PBE0_D3_def2-TZVP)

!RKS PBE0 d3bj def2-TZVP def2/J RIJDX TightSCF defgrid2 NoMOPrint Printbasis
%pal nprocs 4 end
%maxcore 1000
%base "PBE0_D3_def2-TZVP_1_10"

%geom
TolE=1e-6
TolMaxG=1e-4
TolRMSG=3e-5
TolMaxD=1e-3
TolRMSD=6e-4
end

*xyz 1 1
H         -0.4925968701        0.4277443697       -0.1905900596
N         -0.2256893300        1.4212689297       -0.1662123797
C         -0.8587909803        2.1783988499        0.7410063799
C         -0.5397662302        3.5252782799        0.8101025398
C          0.4194145101        4.0407579497       -0.0501991099
C          1.0499199004        3.2118596895       -0.9678235296
C          0.7089853103        1.8694517995       -1.0204677095
C          1.3570183405        0.8632005993       -1.9025471791
C          2.1757101801       -0.0770398206       -1.0313197787
C          3.2788878299        0.4176066894       -0.3506965684
C          4.0483282096       -0.4165778005        0.4494274420
C          3.6913475295       -1.7547599705        0.5507212821
C          2.5920961896       -2.2691296105       -0.1237100682
C          1.8239960400       -1.4117424806       -0.9029937386
H          0.9680312701       -1.8002027006       -1.4373458688
C          2.2582529895       -3.7235010505       -0.0111116681
H          1.9721497791       -3.9716960103        1.0106301419
H          1.4467156097       -3.9968045805       -0.6798076783
H          3.1292836495       -4.3264674106       -0.2596028477
H          4.2903931992       -2.4152073104        1.1601531824
C          5.2535225094        0.1017086195        1.1671920123
H          5.2946823090       -0.2868239703        2.1822862024
H          5.2552169395        1.1880083595        1.2028196421
H          6.1571533596       -0.2236398807        0.6525659327
H          3.5519234301        1.4580350494       -0.4554784285
H          0.6013032506        0.2905435293       -2.4439838793
H          2.0034216908        1.3581471691       -2.6271866890
H          1.7950611806        3.6019989493       -1.6416572294
H          0.6747915402        5.0882067297       -0.0060031400
H         -1.0352554304        4.1578074201        1.5283464296
C         -1.8610110606        1.5087424101        1.6248823897
C         -2.4696548805        0.2960612701        0.9611915897
C         -3.6924509603        0.3948775401        0.3180195993
C         -4.2423544202       -0.7032593700       -0.3345674107
C         -3.5348080302       -1.8975889901       -0.3413728603
C         -2.3065907205       -2.0210029700        0.2956462501
C         -1.7741516706       -0.9108434400        0.9404715001
H         -0.8371006208       -1.0077979300        1.4753648205
C         -1.5836257406       -3.3300974601        0.2946342906
H         -1.4715556803       -3.7063154503       -0.7209656693
H         -0.6025051407       -3.2377224901        0.7521877809
H         -2.1556340808       -4.0692405000        0.8534067205
H         -3.9551151501       -2.7576075201       -0.8412893803
C         -5.5802565599       -0.6072045100       -0.9933788112
H         -5.8098119898        0.4183577500       -1.2708494614
H         -6.3522680702       -0.9504433198       -0.3046589614
H         -5.6239003797       -1.2350163201       -1.8797658811
H         -4.2328004702        1.3299749401        0.3340919590
H         -2.6342113907        2.2257905902        1.9035818993
H         -1.3514119010        1.2073321802        2.5465430399
*
