# Molecule 1; Conformer number 15 (PBE0_D3_def2-TZVP)

!RKS PBE0 d3bj def2-TZVP def2/J RIJDX TightSCF defgrid2 NoMOPrint Printbasis
%pal nprocs 4 end
%maxcore 1000
%base "PBE0_D3_def2-TZVP_1_15"

%geom
TolE=1e-6
TolMaxG=1e-4
TolRMSG=3e-5
TolMaxD=1e-3
TolRMSD=6e-4
end

*xyz 1 1
H         -0.0639913599       -0.4964167203        0.0054716198
N         -0.0297704900        0.5218900097        0.0180340698
C          0.7393076501        1.1337092898       -0.8997924001
C          0.7871482700        2.5190962598       -0.8908094101
C          0.0454144098        3.2226956597        0.0466666998
C         -0.7345446803        2.5415879197        0.9708126897
C         -0.7632080302        1.1567172397        0.9502083697
C         -1.6258327203        0.3201481096        1.8258032695
C         -2.7834844901       -0.1668813705        0.9664757393
C         -2.7385061399       -1.4194839305        0.3722757693
C         -3.7849075998       -1.8573439905       -0.4295369509
C         -4.8644621998       -1.0087390506       -0.6385499310
C         -4.9240086100        0.2515202294       -0.0593644910
C         -3.8669338602        0.6669619694        0.7409846392
H         -3.8988783203        1.6430221094        1.2025671392
C         -6.1124941300        1.1318900293       -0.2779320812
H         -6.4503608999        1.0758808293       -1.3100151112
H         -6.9347896601        0.8041491392        0.3577168987
H         -5.8871887701        2.1666597593       -0.0336514311
H         -5.6812974497       -1.3424742007       -1.2611528611
C         -3.7641646896       -3.2149060705       -1.0575834709
H         -3.8477478194       -3.1339079105       -2.1402378209
H         -4.6116729796       -3.8012247706       -0.7069299410
H         -2.8508820096       -3.7520617305       -0.8153670107
H         -1.9041572599       -2.0826465004        0.5607469094
H         -1.0691889903       -0.5344576004        2.2143614096
H         -2.0002897005        0.9068481395        2.6630251695
H         -1.3139110005        3.0773979396        1.7043859096
H          0.0745448697        4.3012118897        0.0574469799
H          1.3956444300        3.0369688999       -1.6135327800
C          1.5628119703        0.2742108699       -1.7895209900
C          2.7503576202       -0.1919323800       -0.9583155698
C          3.8502898701        0.6373233400       -0.8083826896
C          4.9350339900        0.2399196701       -0.0365020694
C          4.8868409700       -0.9972609699        0.5914600205
C          3.7913502201       -1.8406751800        0.4580794103
C          2.7173102602       -1.4209229101       -0.3163450298
H          1.8686158802       -2.0800581101       -0.4437730500
C          3.7851479401       -3.1764186600        1.1314292503
H          4.5546533802       -3.8137966299        0.6984188204
H          4.0061850899       -3.0701871200        2.1918754803
H          2.8256937501       -3.6747418901        1.0197546801
H          5.7248159799       -1.3165582299        1.1931917606
C          6.1397769999        1.1146430302        0.1008203708
H          6.9305684400        0.7577805503       -0.5586822791
H          6.5218456098        1.0890952802        1.1185502808
H          5.9132955799        2.1431231402       -0.1677271093
H          3.8738697401        1.5950535000       -1.3072135996
H          1.9098832604        0.8398232599       -2.6526113599
H          0.9918901304       -0.5884487902       -2.1364438201
*
