# Molecule 1; Conformer number 7 (PBE0_D3_def2-TZVP)

!RKS PBE0 d3bj def2-TZVP def2/J RIJDX TightSCF defgrid2 NoMOPrint Printbasis
%pal nprocs 4 end
%maxcore 1000
%base "PBE0_D3_def2-TZVP_1_7"

%geom
TolE=1e-6
TolMaxG=1e-4
TolRMSG=3e-5
TolMaxD=1e-3
TolRMSD=6e-4
end

*xyz 1 1
H          0.4886251376       -0.5849993119        0.0479706909
N          1.1937035840       -1.3284486655       -0.0436167678
C          2.3202729943       -1.1981878901        0.6735466724
C          3.2880972795       -2.1828223251        0.5596027841
C          3.0620363444       -3.2645591551       -0.2808272945
C          1.8765338442       -3.3538522102       -0.9957527548
C          0.9256089592       -2.3526956453       -0.8660172365
C         -0.3732064305       -2.3390583599       -1.5970671370
C         -1.4433088968       -1.5332152936       -0.8970159885
C         -1.7937099988       -1.8497443801        0.4126528218
C         -2.8037194156       -1.1566663942        1.0625961805
C         -3.4622239503       -0.1402138219        0.3782188488
C         -3.1244927582        0.1968573047       -0.9235585015
C         -2.0990328114       -0.5039486113       -1.5509814902
H         -1.8317633198       -0.2531189340       -2.5672292404
C         -3.8600509926        1.2706721573       -1.6589818732
H         -3.1775319294        1.8682400331       -2.2594597938
H         -4.5873542045        0.8202466200       -2.3343063429
H         -4.3962821896        1.9199302909       -0.9724989843
H         -4.2648811179        0.3881740228        0.8718438678
C         -3.1980368678       -1.4978802503        2.4648592808
H         -4.1996838099       -1.9251603053        2.4750644610
H         -3.2177605636       -0.6053420493        3.0880636196
H         -2.5144783416       -2.2200810731        2.9040245421
H         -1.2899786430       -2.6614002319        0.9207209231
H         -0.2014573181       -1.9267597921       -2.5968448075
H         -0.7133006856       -3.3686111584       -1.7378495357
H          1.6877127103       -4.1893667602       -1.6499597937
H          3.8085278406       -4.0377449090       -0.3763354831
H          4.2026122397       -2.1041119289        1.1243481444
C          2.4379267200        0.0031976505        1.5510523408
C          1.7463805861        1.2007659231        0.9389749589
C          2.4485462606        2.0350510984        0.0826415780
C          1.8274484962        3.1283284507       -0.5084255037
C          0.4887147673        3.3666339077       -0.2258275045
C         -0.2342204771        2.5446549525        0.6277660363
C          0.4023796673        1.4464635601        1.1950362381
H         -0.1474743161        0.8107819138        1.8771096588
C         -1.6555489756        2.8628774900        0.9630870054
H         -2.1786815001        1.9840795431        1.3303352364
H         -1.6828847521        3.6269325112        1.7399415143
H         -2.1800848534        3.2543266314        0.0955669246
H          0.0016856317        4.2228017395       -0.6685939659
C          2.5923395811        4.0496462456       -1.4033629647
H          2.9542755252        4.9017333446       -0.8280324857
H          1.9594175233        4.4327164177       -2.1999081855
H          3.4528074988        3.5497624908       -1.8406864837
H          3.4930975897        1.8431422129       -0.1154307913
H          3.4910207910        0.2182859855        1.7349707309
H          1.9777259885       -0.2298866759        2.5169003910
*
