# Molecule 2; Conformer number 2 (PBE0_D3_def2-TZVP)

!RKS PBE0 d3bj def2-TZVP def2/J RIJDX TightSCF defgrid2 NoMOPrint Printbasis
%pal nprocs 4 end
%maxcore 1000
%base "PBE0_D3_def2-TZVP_2_2"

%geom
TolE=1e-6
TolMaxG=1e-4
TolRMSG=3e-5
TolMaxD=1e-3
TolRMSD=6e-4
end

*xyz 1 1
C          2.0769168358        1.1857724555       -0.0678894894
N          1.4556311422        0.0008000965        0.0158611236
C          2.0750952760       -1.1862820005        0.0833111982
C          3.4611074583       -1.2028139115        0.0668599260
C          4.1545261403       -0.0034843271       -0.0183060197
C          3.4630081169        1.1979668843       -0.0863223500
H          3.9892941859        2.1362399460       -0.1537076213
H          5.2334011909       -0.0052301820       -0.0322225368
H          3.9860268166       -2.1427461024        0.1203075170
C          1.2299327752       -2.4145176195        0.1783121969
C         -0.2458810678       -2.1251175953        0.0457173575
C         -0.8094748391       -1.9463567197       -1.2140682617
C         -2.1632456712       -1.6926820218       -1.3440556611
C         -2.9642311301       -1.6098986903       -0.2174102357
C         -2.4075840253       -1.7702344586        1.0398745020
C         -1.0529615560       -2.0226086079        1.1723819664
H         -0.6252593469       -2.1620563953        2.1546127060
H         -3.0289847206       -1.7111637832        1.9193968060
H         -4.0226623866       -1.4319369864       -0.3207442781
H         -2.5936836791       -1.5732807230       -2.3257769428
H         -0.1892277045       -2.0287914089       -2.0953140060
H          1.4322005446       -2.8992800574        1.1381023750
H          1.5475822429       -3.1164105315       -0.5979782588
H          0.4270688228        0.0026525998        0.0272275691
C          1.2340413604        2.4172164594       -0.1406423121
C         -0.2433537801        2.1271646566       -0.0295849361
C         -1.0315662715        2.0199622131       -1.1692645669
C         -2.3877919851        1.7663656680       -1.0585055114
C         -2.9651780848        1.6096288199        0.1899519216
C         -2.1832133698        1.6970578485        1.3294342580
C         -0.8275785180        1.9517387890        1.2211579418
H         -0.2224635605        2.0380209080        2.1125068572
H         -2.6298195976        1.5805918706        2.3042661253
H         -4.0250056816        1.4309053310        0.2762151264
H         -2.9944272405        1.7035552062       -1.9480149765
H         -0.5874903067        2.1565766237       -2.1445921131
H          1.4469978535        2.9267272456       -1.0849678861
H          1.5448750968        3.0978801615        0.6572560501
*
