
!RKS M06L def2-TZVP def2/J RI TightSCF defgrid2 NoMOPrint Printbasis Opt
%pal nprocs 4 end
%maxcore 1000
%base "#"

%geom
TolE=1e-6
TolMaxG=1e-4
TolRMSG=3e-5
TolMaxD=1e-3
TolRMSD=6e-4
end

*xyz 1 1
